ACTORES = {Actor1, Actor2, Actor3, Actor4, Actor5} ;

Escenas = [| 0,1,0,0,0,0,1,10
           | 0,1,1,1,0,1,0,20
           | 0,0,0,0,1,1,1,15
           | 0,1,0,1,1,0,1,18
           | 1,0,1,0,0,1,0,22|]; 
           
Duracion = [2,1,1,1,3,4,3];



% ----------
% 5 6 4 3 2 1 363
% ----------
% ==========
% Finished in 444msec.